%*
REACTIONS
====================================================================================================
*%

% LEUKOTRIENE-C4-SYNTHASE-RXN
reactant(LEUKOTRIENE-C4-SYNTHASE-RXN,"CPD-8892","uni").
reactant(LEUKOTRIENE-C4-SYNTHASE-RXN,"GLUTATHIONE","uni").
product(LEUKOTRIENE-C4-SYNTHASE-RXN,"LEUKOTRIENE-C4","uni").

% RXN-8495
reactant(RXN-8495,"LINOLEIC_ACID","uni").
reactant(RXN-8495,"OXYGEN-MOLECULE","uni").
product(RXN-8495,"CPD-8677","uni").

% LIPOXYGENASE-RXN
reactant(LIPOXYGENASE-RXN,"LINOLEIC_ACID","uni").
reactant(LIPOXYGENASE-RXN,"OXYGEN-MOLECULE","uni").
product(LIPOXYGENASE-RXN,"13-HYDROPEROXYOCTADECA-911-DIENOATE","uni").

%*
CHEMICALS
====================================================================================================
*%

% linoleate
atom("linoleate",1,c).
atom("linoleate",2,c).
atom("linoleate",3,c).
atom("linoleate",4,c).
atom("linoleate",5,c).
atom("linoleate",6,c).
atom("linoleate",7,c).
atom("linoleate",8,c).
atom("linoleate",9,c).
atom("linoleate",10,c).
atom("linoleate",11,c).
atom("linoleate",12,c).
atom("linoleate",13,c).
atom("linoleate",14,c).
atom("linoleate",15,c).
atom("linoleate",16,c).
atom("linoleate",17,c).
atom("linoleate",18,c).
atom("linoleate",19,o).
atom("linoleate",20,o).
bond("linoleate",single,1,2).
bond("linoleate",single,2,3).
bond("linoleate",single,3,4).
bond("linoleate",single,4,5).
bond("linoleate",single,5,6).
bond("linoleate",double,6,7).
bond("linoleate",single,7,8).
bond("linoleate",single,8,9).
bond("linoleate",double,9,10).
bond("linoleate",single,10,11).
bond("linoleate",single,11,12).
bond("linoleate",single,12,13).
bond("linoleate",single,13,14).
bond("linoleate",single,14,15).
bond("linoleate",single,15,16).
bond("linoleate",single,16,17).
bond("linoleate",single,17,18).
bond("linoleate",double,18,19).
bond("linoleate",single,18,20).

% 12_hydroxy_13_glutation_OME
atom("12_hydroxy_13_glutation_OME",1,c).
atom("12_hydroxy_13_glutation_OME",2,c).
atom("12_hydroxy_13_glutation_OME",3,c).
atom("12_hydroxy_13_glutation_OME",4,c).
atom("12_hydroxy_13_glutation_OME",5,c).
atom("12_hydroxy_13_glutation_OME",6,c).
atom("12_hydroxy_13_glutation_OME",7,s).
atom("12_hydroxy_13_glutation_OME",8,c).
atom("12_hydroxy_13_glutation_OME",9,c).
atom("12_hydroxy_13_glutation_OME",10,n).
atom("12_hydroxy_13_glutation_OME",11,c).
atom("12_hydroxy_13_glutation_OME",12,o).
atom("12_hydroxy_13_glutation_OME",13,c).
atom("12_hydroxy_13_glutation_OME",14,c).
atom("12_hydroxy_13_glutation_OME",15,c).
atom("12_hydroxy_13_glutation_OME",16,n).
atom("12_hydroxy_13_glutation_OME",17,c).
atom("12_hydroxy_13_glutation_OME",18,o).
atom("12_hydroxy_13_glutation_OME",19,o).
atom("12_hydroxy_13_glutation_OME",20,c).
atom("12_hydroxy_13_glutation_OME",21,o).
atom("12_hydroxy_13_glutation_OME",22,n).
atom("12_hydroxy_13_glutation_OME",23,c).
atom("12_hydroxy_13_glutation_OME",24,c).
atom("12_hydroxy_13_glutation_OME",25,o).
atom("12_hydroxy_13_glutation_OME",26,o).
atom("12_hydroxy_13_glutation_OME",27,c).
atom("12_hydroxy_13_glutation_OME",28,o).
atom("12_hydroxy_13_glutation_OME",29,c).
atom("12_hydroxy_13_glutation_OME",30,c).
atom("12_hydroxy_13_glutation_OME",31,c).
atom("12_hydroxy_13_glutation_OME",32,c).
atom("12_hydroxy_13_glutation_OME",33,c).
atom("12_hydroxy_13_glutation_OME",34,c).
atom("12_hydroxy_13_glutation_OME",35,c).
atom("12_hydroxy_13_glutation_OME",36,c).
atom("12_hydroxy_13_glutation_OME",37,c).
atom("12_hydroxy_13_glutation_OME",38,c).
atom("12_hydroxy_13_glutation_OME",39,c).
atom("12_hydroxy_13_glutation_OME",40,o).
atom("12_hydroxy_13_glutation_OME",41,o).
bond("12_hydroxy_13_glutation_OME",single,1,2).
bond("12_hydroxy_13_glutation_OME",single,2,3).
bond("12_hydroxy_13_glutation_OME",single,3,4).
bond("12_hydroxy_13_glutation_OME",single,4,5).
bond("12_hydroxy_13_glutation_OME",single,5,6).
bond("12_hydroxy_13_glutation_OME",single,6,7).
bond("12_hydroxy_13_glutation_OME",single,7,8).
bond("12_hydroxy_13_glutation_OME",single,8,9).
bond("12_hydroxy_13_glutation_OME",single,9,10).
bond("12_hydroxy_13_glutation_OME",single,10,11).
bond("12_hydroxy_13_glutation_OME",double,11,12).
bond("12_hydroxy_13_glutation_OME",single,11,13).
bond("12_hydroxy_13_glutation_OME",single,13,14).
bond("12_hydroxy_13_glutation_OME",single,14,15).
bond("12_hydroxy_13_glutation_OME",single,15,16).
bond("12_hydroxy_13_glutation_OME",single,15,17).
bond("12_hydroxy_13_glutation_OME",double,17,18).
bond("12_hydroxy_13_glutation_OME",single,17,19).
bond("12_hydroxy_13_glutation_OME",single,9,20).
bond("12_hydroxy_13_glutation_OME",double,20,21).
bond("12_hydroxy_13_glutation_OME",single,20,22).
bond("12_hydroxy_13_glutation_OME",single,22,23).
bond("12_hydroxy_13_glutation_OME",single,23,24).
bond("12_hydroxy_13_glutation_OME",double,24,25).
bond("12_hydroxy_13_glutation_OME",single,24,26).
bond("12_hydroxy_13_glutation_OME",single,6,27).
bond("12_hydroxy_13_glutation_OME",single,27,28).
bond("12_hydroxy_13_glutation_OME",single,27,29).
bond("12_hydroxy_13_glutation_OME",single,29,30).
bond("12_hydroxy_13_glutation_OME",double,30,31).
bond("12_hydroxy_13_glutation_OME",single,31,32).
bond("12_hydroxy_13_glutation_OME",single,32,33).
bond("12_hydroxy_13_glutation_OME",single,33,34).
bond("12_hydroxy_13_glutation_OME",single,34,35).
bond("12_hydroxy_13_glutation_OME",single,35,36).
bond("12_hydroxy_13_glutation_OME",single,36,37).
bond("12_hydroxy_13_glutation_OME",single,37,38).
bond("12_hydroxy_13_glutation_OME",single,38,39).
bond("12_hydroxy_13_glutation_OME",double,39,40).
bond("12_hydroxy_13_glutation_OME",single,39,41).

% CPD-8677
atom("CPD-8677",1,c).
atom("CPD-8677",2,c).
atom("CPD-8677",3,c).
atom("CPD-8677",4,c).
atom("CPD-8677",5,c).
atom("CPD-8677",6,c).
atom("CPD-8677",7,c).
atom("CPD-8677",8,c).
atom("CPD-8677",9,c).
atom("CPD-8677",10,c).
atom("CPD-8677",11,c).
atom("CPD-8677",12,c).
atom("CPD-8677",13,c).
atom("CPD-8677",14,c).
atom("CPD-8677",15,c).
atom("CPD-8677",16,c).
atom("CPD-8677",17,c).
atom("CPD-8677",18,c).
atom("CPD-8677",19,o).
atom("CPD-8677",20,o).
atom("CPD-8677",21,o).
atom("CPD-8677",22,o).
bond("CPD-8677",single,1,2).
bond("CPD-8677",single,2,3).
bond("CPD-8677",single,3,4).
bond("CPD-8677",single,4,5).
bond("CPD-8677",single,5,6).
bond("CPD-8677",double,6,7).
bond("CPD-8677",single,7,8).
bond("CPD-8677",double,8,9).
bond("CPD-8677",single,9,10).
bond("CPD-8677",single,10,11).
bond("CPD-8677",single,11,12).
bond("CPD-8677",single,12,13).
bond("CPD-8677",single,13,14).
bond("CPD-8677",single,14,15).
bond("CPD-8677",single,15,16).
bond("CPD-8677",single,16,17).
bond("CPD-8677",single,17,18).
bond("CPD-8677",double,18,19).
bond("CPD-8677",single,18,20).
bond("CPD-8677",single,10,21).
bond("CPD-8677",single,21,22).

% LEUKOTRIENE-C4
atom("LEUKOTRIENE-C4",1,c).
atom("LEUKOTRIENE-C4",2,c).
atom("LEUKOTRIENE-C4",3,c).
atom("LEUKOTRIENE-C4",4,c).
atom("LEUKOTRIENE-C4",5,c).
atom("LEUKOTRIENE-C4",6,c).
atom("LEUKOTRIENE-C4",7,c).
atom("LEUKOTRIENE-C4",8,c).
atom("LEUKOTRIENE-C4",9,c).
atom("LEUKOTRIENE-C4",10,c).
atom("LEUKOTRIENE-C4",11,c).
atom("LEUKOTRIENE-C4",12,c).
atom("LEUKOTRIENE-C4",13,c).
atom("LEUKOTRIENE-C4",14,c).
atom("LEUKOTRIENE-C4",15,c).
atom("LEUKOTRIENE-C4",16,s).
atom("LEUKOTRIENE-C4",17,c).
atom("LEUKOTRIENE-C4",18,c).
atom("LEUKOTRIENE-C4",19,n).
atom("LEUKOTRIENE-C4",20,c).
atom("LEUKOTRIENE-C4",21,o).
atom("LEUKOTRIENE-C4",22,c).
atom("LEUKOTRIENE-C4",23,c).
atom("LEUKOTRIENE-C4",24,c).
atom("LEUKOTRIENE-C4",25,n).
atom("LEUKOTRIENE-C4",26,c).
atom("LEUKOTRIENE-C4",27,o).
atom("LEUKOTRIENE-C4",28,o).
atom("LEUKOTRIENE-C4",29,c).
atom("LEUKOTRIENE-C4",30,o).
atom("LEUKOTRIENE-C4",31,n).
atom("LEUKOTRIENE-C4",32,c).
atom("LEUKOTRIENE-C4",33,c).
atom("LEUKOTRIENE-C4",34,o).
atom("LEUKOTRIENE-C4",35,o).
atom("LEUKOTRIENE-C4",36,c).
atom("LEUKOTRIENE-C4",37,o).
atom("LEUKOTRIENE-C4",38,c).
atom("LEUKOTRIENE-C4",39,c).
atom("LEUKOTRIENE-C4",40,c).
atom("LEUKOTRIENE-C4",41,c).
atom("LEUKOTRIENE-C4",42,o).
atom("LEUKOTRIENE-C4",43,o).
bond("LEUKOTRIENE-C4",single,1,2).
bond("LEUKOTRIENE-C4",single,2,3).
bond("LEUKOTRIENE-C4",single,3,4).
bond("LEUKOTRIENE-C4",single,4,5).
bond("LEUKOTRIENE-C4",single,5,6).
bond("LEUKOTRIENE-C4",double,6,7).
bond("LEUKOTRIENE-C4",single,7,8).
bond("LEUKOTRIENE-C4",single,8,9).
bond("LEUKOTRIENE-C4",double,9,10).
bond("LEUKOTRIENE-C4",single,10,11).
bond("LEUKOTRIENE-C4",double,11,12).
bond("LEUKOTRIENE-C4",single,12,13).
bond("LEUKOTRIENE-C4",double,13,14).
bond("LEUKOTRIENE-C4",single,14,15).
bond("LEUKOTRIENE-C4",single,15,16).
bond("LEUKOTRIENE-C4",single,16,17).
bond("LEUKOTRIENE-C4",single,17,18).
bond("LEUKOTRIENE-C4",single,18,19).
bond("LEUKOTRIENE-C4",single,19,20).
bond("LEUKOTRIENE-C4",double,20,21).
bond("LEUKOTRIENE-C4",single,20,22).
bond("LEUKOTRIENE-C4",single,22,23).
bond("LEUKOTRIENE-C4",single,23,24).
bond("LEUKOTRIENE-C4",single,24,25).
bond("LEUKOTRIENE-C4",single,24,26).
bond("LEUKOTRIENE-C4",double,26,27).
bond("LEUKOTRIENE-C4",single,26,28).
bond("LEUKOTRIENE-C4",single,18,29).
bond("LEUKOTRIENE-C4",double,29,30).
bond("LEUKOTRIENE-C4",single,29,31).
bond("LEUKOTRIENE-C4",single,31,32).
bond("LEUKOTRIENE-C4",single,32,33).
bond("LEUKOTRIENE-C4",double,33,34).
bond("LEUKOTRIENE-C4",single,33,35).
bond("LEUKOTRIENE-C4",single,15,36).
bond("LEUKOTRIENE-C4",single,36,37).
bond("LEUKOTRIENE-C4",single,36,38).
bond("LEUKOTRIENE-C4",single,38,39).
bond("LEUKOTRIENE-C4",single,39,40).
bond("LEUKOTRIENE-C4",single,40,41).
bond("LEUKOTRIENE-C4",double,41,42).
bond("LEUKOTRIENE-C4",single,41,43).

% 13-HYDROPEROXYOCTADECA-911-DIENOATE
atom("13-HYDROPEROXYOCTADECA-911-DIENOATE",1,c).
atom("13-HYDROPEROXYOCTADECA-911-DIENOATE",2,c).
atom("13-HYDROPEROXYOCTADECA-911-DIENOATE",3,c).
atom("13-HYDROPEROXYOCTADECA-911-DIENOATE",4,c).
atom("13-HYDROPEROXYOCTADECA-911-DIENOATE",5,c).
atom("13-HYDROPEROXYOCTADECA-911-DIENOATE",6,c).
atom("13-HYDROPEROXYOCTADECA-911-DIENOATE",7,c).
atom("13-HYDROPEROXYOCTADECA-911-DIENOATE",8,c).
atom("13-HYDROPEROXYOCTADECA-911-DIENOATE",9,c).
atom("13-HYDROPEROXYOCTADECA-911-DIENOATE",10,c).
atom("13-HYDROPEROXYOCTADECA-911-DIENOATE",11,c).
atom("13-HYDROPEROXYOCTADECA-911-DIENOATE",12,c).
atom("13-HYDROPEROXYOCTADECA-911-DIENOATE",13,c).
atom("13-HYDROPEROXYOCTADECA-911-DIENOATE",14,c).
atom("13-HYDROPEROXYOCTADECA-911-DIENOATE",15,c).
atom("13-HYDROPEROXYOCTADECA-911-DIENOATE",16,c).
atom("13-HYDROPEROXYOCTADECA-911-DIENOATE",17,c).
atom("13-HYDROPEROXYOCTADECA-911-DIENOATE",18,c).
atom("13-HYDROPEROXYOCTADECA-911-DIENOATE",19,o).
atom("13-HYDROPEROXYOCTADECA-911-DIENOATE",20,o).
atom("13-HYDROPEROXYOCTADECA-911-DIENOATE",21,o).
atom("13-HYDROPEROXYOCTADECA-911-DIENOATE",22,o).
bond("13-HYDROPEROXYOCTADECA-911-DIENOATE",single,1,2).
bond("13-HYDROPEROXYOCTADECA-911-DIENOATE",single,2,3).
bond("13-HYDROPEROXYOCTADECA-911-DIENOATE",single,3,4).
bond("13-HYDROPEROXYOCTADECA-911-DIENOATE",single,4,5).
bond("13-HYDROPEROXYOCTADECA-911-DIENOATE",single,5,6).
bond("13-HYDROPEROXYOCTADECA-911-DIENOATE",single,6,7).
bond("13-HYDROPEROXYOCTADECA-911-DIENOATE",double,7,8).
bond("13-HYDROPEROXYOCTADECA-911-DIENOATE",single,8,9).
bond("13-HYDROPEROXYOCTADECA-911-DIENOATE",double,9,10).
bond("13-HYDROPEROXYOCTADECA-911-DIENOATE",single,10,11).
bond("13-HYDROPEROXYOCTADECA-911-DIENOATE",single,11,12).
bond("13-HYDROPEROXYOCTADECA-911-DIENOATE",single,12,13).
bond("13-HYDROPEROXYOCTADECA-911-DIENOATE",single,13,14).
bond("13-HYDROPEROXYOCTADECA-911-DIENOATE",single,14,15).
bond("13-HYDROPEROXYOCTADECA-911-DIENOATE",single,15,16).
bond("13-HYDROPEROXYOCTADECA-911-DIENOATE",single,16,17).
bond("13-HYDROPEROXYOCTADECA-911-DIENOATE",single,17,18).
bond("13-HYDROPEROXYOCTADECA-911-DIENOATE",double,18,19).
bond("13-HYDROPEROXYOCTADECA-911-DIENOATE",single,18,20).
bond("13-HYDROPEROXYOCTADECA-911-DIENOATE",single,6,21).
bond("13-HYDROPEROXYOCTADECA-911-DIENOATE",single,21,22).

% GLUTATHIONE
atom("GLUTATHIONE",1,n).
atom("GLUTATHIONE",2,c).
atom("GLUTATHIONE",3,c).
atom("GLUTATHIONE",4,c).
atom("GLUTATHIONE",5,c).
atom("GLUTATHIONE",6,o).
atom("GLUTATHIONE",7,n).
atom("GLUTATHIONE",8,c).
atom("GLUTATHIONE",9,c).
atom("GLUTATHIONE",10,s).
atom("GLUTATHIONE",11,c).
atom("GLUTATHIONE",12,o).
atom("GLUTATHIONE",13,n).
atom("GLUTATHIONE",14,c).
atom("GLUTATHIONE",15,c).
atom("GLUTATHIONE",16,o).
atom("GLUTATHIONE",17,o).
atom("GLUTATHIONE",18,c).
atom("GLUTATHIONE",19,o).
atom("GLUTATHIONE",20,o).
bond("GLUTATHIONE",single,1,2).
bond("GLUTATHIONE",single,2,3).
bond("GLUTATHIONE",single,3,4).
bond("GLUTATHIONE",single,4,5).
bond("GLUTATHIONE",double,5,6).
bond("GLUTATHIONE",single,5,7).
bond("GLUTATHIONE",single,7,8).
bond("GLUTATHIONE",single,8,9).
bond("GLUTATHIONE",single,9,10).
bond("GLUTATHIONE",single,8,11).
bond("GLUTATHIONE",double,11,12).
bond("GLUTATHIONE",single,11,13).
bond("GLUTATHIONE",single,13,14).
bond("GLUTATHIONE",single,14,15).
bond("GLUTATHIONE",double,15,16).
bond("GLUTATHIONE",single,15,17).
bond("GLUTATHIONE",single,2,18).
bond("GLUTATHIONE",double,18,19).
bond("GLUTATHIONE",single,18,20).

% OXYGEN-MOLECULE
atom("OXYGEN-MOLECULE",1,o).
atom("OXYGEN-MOLECULE",2,o).
bond("OXYGEN-MOLECULE",double,1,2).

% LINOLEIC_ACID
atom("LINOLEIC_ACID",1,c).
atom("LINOLEIC_ACID",2,c).
atom("LINOLEIC_ACID",3,c).
atom("LINOLEIC_ACID",4,c).
atom("LINOLEIC_ACID",5,c).
atom("LINOLEIC_ACID",6,c).
atom("LINOLEIC_ACID",7,c).
atom("LINOLEIC_ACID",8,c).
atom("LINOLEIC_ACID",9,c).
atom("LINOLEIC_ACID",10,c).
atom("LINOLEIC_ACID",11,c).
atom("LINOLEIC_ACID",12,c).
atom("LINOLEIC_ACID",13,c).
atom("LINOLEIC_ACID",14,c).
atom("LINOLEIC_ACID",15,c).
atom("LINOLEIC_ACID",16,c).
atom("LINOLEIC_ACID",17,c).
atom("LINOLEIC_ACID",18,c).
atom("LINOLEIC_ACID",19,o).
atom("LINOLEIC_ACID",20,o).
bond("LINOLEIC_ACID",single,1,2).
bond("LINOLEIC_ACID",single,2,3).
bond("LINOLEIC_ACID",single,3,4).
bond("LINOLEIC_ACID",single,4,5).
bond("LINOLEIC_ACID",single,5,6).
bond("LINOLEIC_ACID",double,6,7).
bond("LINOLEIC_ACID",single,7,8).
bond("LINOLEIC_ACID",single,8,9).
bond("LINOLEIC_ACID",double,9,10).
bond("LINOLEIC_ACID",single,10,11).
bond("LINOLEIC_ACID",single,11,12).
bond("LINOLEIC_ACID",single,12,13).
bond("LINOLEIC_ACID",single,13,14).
bond("LINOLEIC_ACID",single,14,15).
bond("LINOLEIC_ACID",single,15,16).
bond("LINOLEIC_ACID",single,16,17).
bond("LINOLEIC_ACID",single,17,18).
bond("LINOLEIC_ACID",double,18,19).
bond("LINOLEIC_ACID",single,18,20).

% CPD-8892
atom("CPD-8892",1,c).
atom("CPD-8892",2,c).
atom("CPD-8892",3,c).
atom("CPD-8892",4,c).
atom("CPD-8892",5,c).
atom("CPD-8892",6,c).
atom("CPD-8892",7,c).
atom("CPD-8892",8,c).
atom("CPD-8892",9,c).
atom("CPD-8892",10,c).
atom("CPD-8892",11,c).
atom("CPD-8892",12,c).
atom("CPD-8892",13,c).
atom("CPD-8892",14,c).
atom("CPD-8892",15,c).
atom("CPD-8892",16,o).
atom("CPD-8892",17,c).
atom("CPD-8892",18,c).
atom("CPD-8892",19,c).
atom("CPD-8892",20,c).
atom("CPD-8892",21,c).
atom("CPD-8892",22,o).
atom("CPD-8892",23,o).
bond("CPD-8892",single,1,2).
bond("CPD-8892",single,2,3).
bond("CPD-8892",single,3,4).
bond("CPD-8892",single,4,5).
bond("CPD-8892",single,5,6).
bond("CPD-8892",double,6,7).
bond("CPD-8892",single,7,8).
bond("CPD-8892",single,8,9).
bond("CPD-8892",double,9,10).
bond("CPD-8892",single,10,11).
bond("CPD-8892",double,11,12).
bond("CPD-8892",single,12,13).
bond("CPD-8892",double,13,14).
bond("CPD-8892",single,14,15).
bond("CPD-8892",single,15,16).
bond("CPD-8892",single,16,17).
bond("CPD-8892",single,17,18).
bond("CPD-8892",single,18,19).
bond("CPD-8892",single,19,20).
bond("CPD-8892",single,20,21).
bond("CPD-8892",double,21,22).
bond("CPD-8892",single,21,23).
bond("CPD-8892",single,17,15).

%*
SOURCE - GOAL
====================================================================================================
*%

% SOURCE
source("linoleate").

% GOAL
goal(pathway("linoleate","12_hydroxy_13_glutation_OME")).

%*
MAPPINGS
====================================================================================================
*%

% LEUKOTRIENE-C4-SYNTHASE-RXN
atomMappingReactant("LEUKOTRIENE-C4-SYNTHASE-RXN","C",4).
atomMappingReactant("LEUKOTRIENE-C4-SYNTHASE-RXN","C",5).
atomMappingReactant("LEUKOTRIENE-C4-SYNTHASE-RXN","C",6).
atomMappingReactant("LEUKOTRIENE-C4-SYNTHASE-RXN","C",7).
atomMappingReactant("LEUKOTRIENE-C4-SYNTHASE-RXN","C",8).
atomMappingReactant("LEUKOTRIENE-C4-SYNTHASE-RXN","C",9).
atomMappingReactant("LEUKOTRIENE-C4-SYNTHASE-RXN","C",10).
atomMappingReactant("LEUKOTRIENE-C4-SYNTHASE-RXN","C",11).
atomMappingReactant("LEUKOTRIENE-C4-SYNTHASE-RXN","C",12).
atomMappingReactant("LEUKOTRIENE-C4-SYNTHASE-RXN","C",13).
atomMappingReactant("LEUKOTRIENE-C4-SYNTHASE-RXN","C",14).
atomMappingReactant("LEUKOTRIENE-C4-SYNTHASE-RXN","C",15).
atomMappingReactant("LEUKOTRIENE-C4-SYNTHASE-RXN","C",16).
atomMappingReactant("LEUKOTRIENE-C4-SYNTHASE-RXN","C",19).
atomMappingReactant("LEUKOTRIENE-C4-SYNTHASE-RXN","C",28).
atomMappingReactant("LEUKOTRIENE-C4-SYNTHASE-RXN","O",37).
atomMappingReactant("LEUKOTRIENE-C4-SYNTHASE-RXN","C",27).
atomMappingReactant("LEUKOTRIENE-C4-SYNTHASE-RXN","C",18).
atomMappingReactant("LEUKOTRIENE-C4-SYNTHASE-RXN","C",17).
atomMappingReactant("LEUKOTRIENE-C4-SYNTHASE-RXN","C",20).
atomMappingReactant("LEUKOTRIENE-C4-SYNTHASE-RXN","C",30).
atomMappingReactant("LEUKOTRIENE-C4-SYNTHASE-RXN","O",1).
atomMappingReactant("LEUKOTRIENE-C4-SYNTHASE-RXN","O",1).
bondMappingReactant("LEUKOTRIENE-C4-SYNTHASE-RXN","4","5","single").
bondMappingReactant("LEUKOTRIENE-C4-SYNTHASE-RXN","5","6","single").
bondMappingReactant("LEUKOTRIENE-C4-SYNTHASE-RXN","6","7","single").
bondMappingReactant("LEUKOTRIENE-C4-SYNTHASE-RXN","7","8","single").
bondMappingReactant("LEUKOTRIENE-C4-SYNTHASE-RXN","8","9","single").
bondMappingReactant("LEUKOTRIENE-C4-SYNTHASE-RXN","9","10","double").
bondMappingReactant("LEUKOTRIENE-C4-SYNTHASE-RXN","10","11","single").
bondMappingReactant("LEUKOTRIENE-C4-SYNTHASE-RXN","11","12","single").
bondMappingReactant("LEUKOTRIENE-C4-SYNTHASE-RXN","12","13","double").
bondMappingReactant("LEUKOTRIENE-C4-SYNTHASE-RXN","13","14","single").
bondMappingReactant("LEUKOTRIENE-C4-SYNTHASE-RXN","14","15","double").
bondMappingReactant("LEUKOTRIENE-C4-SYNTHASE-RXN","15","16","single").
bondMappingReactant("LEUKOTRIENE-C4-SYNTHASE-RXN","16","19","double").
bondMappingReactant("LEUKOTRIENE-C4-SYNTHASE-RXN","19","28","single").
bondMappingReactant("LEUKOTRIENE-C4-SYNTHASE-RXN","28","37","single").
bondMappingReactant("LEUKOTRIENE-C4-SYNTHASE-RXN","37","27","single").
bondMappingReactant("LEUKOTRIENE-C4-SYNTHASE-RXN","27","18","single").
bondMappingReactant("LEUKOTRIENE-C4-SYNTHASE-RXN","18","17","single").
bondMappingReactant("LEUKOTRIENE-C4-SYNTHASE-RXN","17","20","single").
bondMappingReactant("LEUKOTRIENE-C4-SYNTHASE-RXN","20","30","single").
bondMappingReactant("LEUKOTRIENE-C4-SYNTHASE-RXN","30","1","double").
bondMappingReactant("LEUKOTRIENE-C4-SYNTHASE-RXN","30","1","single").
bondMappingReactant("LEUKOTRIENE-C4-SYNTHASE-RXN","27","28","single").
atomMappingReactant("LEUKOTRIENE-C4-SYNTHASE-RXN","C",24).
atomMappingReactant("LEUKOTRIENE-C4-SYNTHASE-RXN","S",40).
atomMappingReactant("LEUKOTRIENE-C4-SYNTHASE-RXN","C",26).
atomMappingReactant("LEUKOTRIENE-C4-SYNTHASE-RXN","C",32).
atomMappingReactant("LEUKOTRIENE-C4-SYNTHASE-RXN","N",35).
atomMappingReactant("LEUKOTRIENE-C4-SYNTHASE-RXN","C",23).
atomMappingReactant("LEUKOTRIENE-C4-SYNTHASE-RXN","C",31).
atomMappingReactant("LEUKOTRIENE-C4-SYNTHASE-RXN","O",2).
atomMappingReactant("LEUKOTRIENE-C4-SYNTHASE-RXN","O",2).
atomMappingReactant("LEUKOTRIENE-C4-SYNTHASE-RXN","O",39).
atomMappingReactant("LEUKOTRIENE-C4-SYNTHASE-RXN","N",36).
atomMappingReactant("LEUKOTRIENE-C4-SYNTHASE-RXN","C",29).
atomMappingReactant("LEUKOTRIENE-C4-SYNTHASE-RXN","O",38).
atomMappingReactant("LEUKOTRIENE-C4-SYNTHASE-RXN","C",22).
atomMappingReactant("LEUKOTRIENE-C4-SYNTHASE-RXN","C",21).
atomMappingReactant("LEUKOTRIENE-C4-SYNTHASE-RXN","C",25).
atomMappingReactant("LEUKOTRIENE-C4-SYNTHASE-RXN","N",34).
atomMappingReactant("LEUKOTRIENE-C4-SYNTHASE-RXN","C",33).
atomMappingReactant("LEUKOTRIENE-C4-SYNTHASE-RXN","O",3).
atomMappingReactant("LEUKOTRIENE-C4-SYNTHASE-RXN","O",3).
bondMappingReactant("LEUKOTRIENE-C4-SYNTHASE-RXN","24","40","single").
bondMappingReactant("LEUKOTRIENE-C4-SYNTHASE-RXN","24","26","single").
bondMappingReactant("LEUKOTRIENE-C4-SYNTHASE-RXN","26","32","single").
bondMappingReactant("LEUKOTRIENE-C4-SYNTHASE-RXN","32","35","single").
bondMappingReactant("LEUKOTRIENE-C4-SYNTHASE-RXN","35","23","single").
bondMappingReactant("LEUKOTRIENE-C4-SYNTHASE-RXN","23","31","single").
bondMappingReactant("LEUKOTRIENE-C4-SYNTHASE-RXN","31","2","single").
bondMappingReactant("LEUKOTRIENE-C4-SYNTHASE-RXN","31","2","double").
bondMappingReactant("LEUKOTRIENE-C4-SYNTHASE-RXN","32","39","double").
bondMappingReactant("LEUKOTRIENE-C4-SYNTHASE-RXN","26","36","single").
bondMappingReactant("LEUKOTRIENE-C4-SYNTHASE-RXN","36","29","single").
bondMappingReactant("LEUKOTRIENE-C4-SYNTHASE-RXN","29","38","double").
bondMappingReactant("LEUKOTRIENE-C4-SYNTHASE-RXN","29","22","single").
bondMappingReactant("LEUKOTRIENE-C4-SYNTHASE-RXN","22","21","single").
bondMappingReactant("LEUKOTRIENE-C4-SYNTHASE-RXN","21","25","single").
bondMappingReactant("LEUKOTRIENE-C4-SYNTHASE-RXN","25","34","single").
bondMappingReactant("LEUKOTRIENE-C4-SYNTHASE-RXN","25","33","single").
bondMappingReactant("LEUKOTRIENE-C4-SYNTHASE-RXN","33","3","single").
bondMappingReactant("LEUKOTRIENE-C4-SYNTHASE-RXN","33","3","double").
atomMappingProduct("LEUKOTRIENE-C4-SYNTHASE-RXN","C",4).
atomMappingProduct("LEUKOTRIENE-C4-SYNTHASE-RXN","C",5).
atomMappingProduct("LEUKOTRIENE-C4-SYNTHASE-RXN","C",6).
atomMappingProduct("LEUKOTRIENE-C4-SYNTHASE-RXN","C",7).
atomMappingProduct("LEUKOTRIENE-C4-SYNTHASE-RXN","C",8).
atomMappingProduct("LEUKOTRIENE-C4-SYNTHASE-RXN","C",9).
atomMappingProduct("LEUKOTRIENE-C4-SYNTHASE-RXN","C",10).
atomMappingProduct("LEUKOTRIENE-C4-SYNTHASE-RXN","C",11).
atomMappingProduct("LEUKOTRIENE-C4-SYNTHASE-RXN","C",12).
atomMappingProduct("LEUKOTRIENE-C4-SYNTHASE-RXN","C",13).
atomMappingProduct("LEUKOTRIENE-C4-SYNTHASE-RXN","C",14).
atomMappingProduct("LEUKOTRIENE-C4-SYNTHASE-RXN","C",15).
atomMappingProduct("LEUKOTRIENE-C4-SYNTHASE-RXN","C",16).
atomMappingProduct("LEUKOTRIENE-C4-SYNTHASE-RXN","C",19).
atomMappingProduct("LEUKOTRIENE-C4-SYNTHASE-RXN","C",28).
atomMappingProduct("LEUKOTRIENE-C4-SYNTHASE-RXN","S",40).
atomMappingProduct("LEUKOTRIENE-C4-SYNTHASE-RXN","C",24).
atomMappingProduct("LEUKOTRIENE-C4-SYNTHASE-RXN","C",26).
atomMappingProduct("LEUKOTRIENE-C4-SYNTHASE-RXN","C",32).
atomMappingProduct("LEUKOTRIENE-C4-SYNTHASE-RXN","O",39).
atomMappingProduct("LEUKOTRIENE-C4-SYNTHASE-RXN","N",35).
atomMappingProduct("LEUKOTRIENE-C4-SYNTHASE-RXN","C",23).
atomMappingProduct("LEUKOTRIENE-C4-SYNTHASE-RXN","C",31).
atomMappingProduct("LEUKOTRIENE-C4-SYNTHASE-RXN","O",2).
atomMappingProduct("LEUKOTRIENE-C4-SYNTHASE-RXN","O",2).
atomMappingProduct("LEUKOTRIENE-C4-SYNTHASE-RXN","N",36).
atomMappingProduct("LEUKOTRIENE-C4-SYNTHASE-RXN","C",29).
atomMappingProduct("LEUKOTRIENE-C4-SYNTHASE-RXN","C",22).
atomMappingProduct("LEUKOTRIENE-C4-SYNTHASE-RXN","C",21).
atomMappingProduct("LEUKOTRIENE-C4-SYNTHASE-RXN","C",25).
atomMappingProduct("LEUKOTRIENE-C4-SYNTHASE-RXN","C",33).
atomMappingProduct("LEUKOTRIENE-C4-SYNTHASE-RXN","O",3).
atomMappingProduct("LEUKOTRIENE-C4-SYNTHASE-RXN","O",3).
atomMappingProduct("LEUKOTRIENE-C4-SYNTHASE-RXN","N",34).
atomMappingProduct("LEUKOTRIENE-C4-SYNTHASE-RXN","O",38).
atomMappingProduct("LEUKOTRIENE-C4-SYNTHASE-RXN","C",27).
atomMappingProduct("LEUKOTRIENE-C4-SYNTHASE-RXN","C",18).
atomMappingProduct("LEUKOTRIENE-C4-SYNTHASE-RXN","C",17).
atomMappingProduct("LEUKOTRIENE-C4-SYNTHASE-RXN","C",20).
atomMappingProduct("LEUKOTRIENE-C4-SYNTHASE-RXN","C",30).
atomMappingProduct("LEUKOTRIENE-C4-SYNTHASE-RXN","O",1).
atomMappingProduct("LEUKOTRIENE-C4-SYNTHASE-RXN","O",1).
atomMappingProduct("LEUKOTRIENE-C4-SYNTHASE-RXN","O",37).
bondMappingProduct("LEUKOTRIENE-C4-SYNTHASE-RXN","4","5","single").
bondMappingProduct("LEUKOTRIENE-C4-SYNTHASE-RXN","5","6","single").
bondMappingProduct("LEUKOTRIENE-C4-SYNTHASE-RXN","6","7","single").
bondMappingProduct("LEUKOTRIENE-C4-SYNTHASE-RXN","7","8","single").
bondMappingProduct("LEUKOTRIENE-C4-SYNTHASE-RXN","8","9","single").
bondMappingProduct("LEUKOTRIENE-C4-SYNTHASE-RXN","9","10","double").
bondMappingProduct("LEUKOTRIENE-C4-SYNTHASE-RXN","10","11","single").
bondMappingProduct("LEUKOTRIENE-C4-SYNTHASE-RXN","11","12","single").
bondMappingProduct("LEUKOTRIENE-C4-SYNTHASE-RXN","12","13","double").
bondMappingProduct("LEUKOTRIENE-C4-SYNTHASE-RXN","13","14","single").
bondMappingProduct("LEUKOTRIENE-C4-SYNTHASE-RXN","14","15","double").
bondMappingProduct("LEUKOTRIENE-C4-SYNTHASE-RXN","15","16","single").
bondMappingProduct("LEUKOTRIENE-C4-SYNTHASE-RXN","16","19","double").
bondMappingProduct("LEUKOTRIENE-C4-SYNTHASE-RXN","19","28","single").
bondMappingProduct("LEUKOTRIENE-C4-SYNTHASE-RXN","28","40","single").
bondMappingProduct("LEUKOTRIENE-C4-SYNTHASE-RXN","40","24","single").
bondMappingProduct("LEUKOTRIENE-C4-SYNTHASE-RXN","24","26","single").
bondMappingProduct("LEUKOTRIENE-C4-SYNTHASE-RXN","26","32","single").
bondMappingProduct("LEUKOTRIENE-C4-SYNTHASE-RXN","32","39","double").
bondMappingProduct("LEUKOTRIENE-C4-SYNTHASE-RXN","32","35","single").
bondMappingProduct("LEUKOTRIENE-C4-SYNTHASE-RXN","35","23","single").
bondMappingProduct("LEUKOTRIENE-C4-SYNTHASE-RXN","23","31","single").
bondMappingProduct("LEUKOTRIENE-C4-SYNTHASE-RXN","31","2","single").
bondMappingProduct("LEUKOTRIENE-C4-SYNTHASE-RXN","31","2","double").
bondMappingProduct("LEUKOTRIENE-C4-SYNTHASE-RXN","26","36","single").
bondMappingProduct("LEUKOTRIENE-C4-SYNTHASE-RXN","36","29","single").
bondMappingProduct("LEUKOTRIENE-C4-SYNTHASE-RXN","29","22","single").
bondMappingProduct("LEUKOTRIENE-C4-SYNTHASE-RXN","22","21","single").
bondMappingProduct("LEUKOTRIENE-C4-SYNTHASE-RXN","21","25","single").
bondMappingProduct("LEUKOTRIENE-C4-SYNTHASE-RXN","25","33","single").
bondMappingProduct("LEUKOTRIENE-C4-SYNTHASE-RXN","33","3","double").
bondMappingProduct("LEUKOTRIENE-C4-SYNTHASE-RXN","33","3","single").
bondMappingProduct("LEUKOTRIENE-C4-SYNTHASE-RXN","25","34","single").
bondMappingProduct("LEUKOTRIENE-C4-SYNTHASE-RXN","29","38","double").
bondMappingProduct("LEUKOTRIENE-C4-SYNTHASE-RXN","28","27","single").
bondMappingProduct("LEUKOTRIENE-C4-SYNTHASE-RXN","27","18","single").
bondMappingProduct("LEUKOTRIENE-C4-SYNTHASE-RXN","18","17","single").
bondMappingProduct("LEUKOTRIENE-C4-SYNTHASE-RXN","17","20","single").
bondMappingProduct("LEUKOTRIENE-C4-SYNTHASE-RXN","20","30","single").
bondMappingProduct("LEUKOTRIENE-C4-SYNTHASE-RXN","30","1","single").
bondMappingProduct("LEUKOTRIENE-C4-SYNTHASE-RXN","30","1","double").
bondMappingProduct("LEUKOTRIENE-C4-SYNTHASE-RXN","27","37","single").

% RXN-8495
atomMappingReactant("RXN-8495","C",2).
atomMappingReactant("RXN-8495","C",3).
atomMappingReactant("RXN-8495","C",4).
atomMappingReactant("RXN-8495","C",5).
atomMappingReactant("RXN-8495","C",6).
atomMappingReactant("RXN-8495","C",7).
atomMappingReactant("RXN-8495","C",9).
atomMappingReactant("RXN-8495","C",12).
atomMappingReactant("RXN-8495","C",15).
atomMappingReactant("RXN-8495","C",18).
atomMappingReactant("RXN-8495","C",16).
atomMappingReactant("RXN-8495","C",13).
atomMappingReactant("RXN-8495","C",10).
atomMappingReactant("RXN-8495","C",8).
atomMappingReactant("RXN-8495","C",11).
atomMappingReactant("RXN-8495","C",14).
atomMappingReactant("RXN-8495","C",17).
atomMappingReactant("RXN-8495","C",19).
atomMappingReactant("RXN-8495","O",1).
atomMappingReactant("RXN-8495","O",1).
bondMappingReactant("RXN-8495","2","3","single").
bondMappingReactant("RXN-8495","3","4","single").
bondMappingReactant("RXN-8495","4","5","single").
bondMappingReactant("RXN-8495","5","6","single").
bondMappingReactant("RXN-8495","6","7","single").
bondMappingReactant("RXN-8495","7","9","double").
bondMappingReactant("RXN-8495","9","12","single").
bondMappingReactant("RXN-8495","12","15","single").
bondMappingReactant("RXN-8495","15","18","double").
bondMappingReactant("RXN-8495","18","16","single").
bondMappingReactant("RXN-8495","16","13","single").
bondMappingReactant("RXN-8495","13","10","single").
bondMappingReactant("RXN-8495","10","8","single").
bondMappingReactant("RXN-8495","8","11","single").
bondMappingReactant("RXN-8495","11","14","single").
bondMappingReactant("RXN-8495","14","17","single").
bondMappingReactant("RXN-8495","17","19","single").
bondMappingReactant("RXN-8495","19","1","single").
bondMappingReactant("RXN-8495","19","1","double").
atomMappingReactant("RXN-8495","O",21).
atomMappingReactant("RXN-8495","O",20).
bondMappingReactant("RXN-8495","21","20","double").
atomMappingProduct("RXN-8495","C",2).
atomMappingProduct("RXN-8495","C",3).
atomMappingProduct("RXN-8495","C",4).
atomMappingProduct("RXN-8495","C",5).
atomMappingProduct("RXN-8495","C",6).
atomMappingProduct("RXN-8495","C",7).
atomMappingProduct("RXN-8495","C",9).
atomMappingProduct("RXN-8495","C",12).
atomMappingProduct("RXN-8495","C",15).
atomMappingProduct("RXN-8495","C",18).
atomMappingProduct("RXN-8495","C",16).
atomMappingProduct("RXN-8495","C",13).
atomMappingProduct("RXN-8495","C",10).
atomMappingProduct("RXN-8495","C",8).
atomMappingProduct("RXN-8495","C",11).
atomMappingProduct("RXN-8495","C",14).
atomMappingProduct("RXN-8495","C",17).
atomMappingProduct("RXN-8495","C",19).
atomMappingProduct("RXN-8495","O",1).
atomMappingProduct("RXN-8495","O",1).
atomMappingProduct("RXN-8495","O",21).
atomMappingProduct("RXN-8495","O",20).
bondMappingProduct("RXN-8495","2","3","single").
bondMappingProduct("RXN-8495","3","4","single").
bondMappingProduct("RXN-8495","4","5","single").
bondMappingProduct("RXN-8495","5","6","single").
bondMappingProduct("RXN-8495","6","7","single").
bondMappingProduct("RXN-8495","7","9","double").
bondMappingProduct("RXN-8495","9","12","single").
bondMappingProduct("RXN-8495","12","15","double").
bondMappingProduct("RXN-8495","15","18","single").
bondMappingProduct("RXN-8495","18","16","single").
bondMappingProduct("RXN-8495","16","13","single").
bondMappingProduct("RXN-8495","13","10","single").
bondMappingProduct("RXN-8495","10","8","single").
bondMappingProduct("RXN-8495","8","11","single").
bondMappingProduct("RXN-8495","11","14","single").
bondMappingProduct("RXN-8495","14","17","single").
bondMappingProduct("RXN-8495","17","19","single").
bondMappingProduct("RXN-8495","19","1","single").
bondMappingProduct("RXN-8495","19","1","double").
bondMappingProduct("RXN-8495","18","21","single").
bondMappingProduct("RXN-8495","21","20","single").

% LIPOXYGENASE-RXN
atomMappingReactant("LIPOXYGENASE-RXN","C",2).
atomMappingReactant("LIPOXYGENASE-RXN","C",3).
atomMappingReactant("LIPOXYGENASE-RXN","C",4).
atomMappingReactant("LIPOXYGENASE-RXN","C",12).
atomMappingReactant("LIPOXYGENASE-RXN","C",15).
atomMappingReactant("LIPOXYGENASE-RXN","C",18).
atomMappingReactant("LIPOXYGENASE-RXN","C",16).
atomMappingReactant("LIPOXYGENASE-RXN","C",13).
atomMappingReactant("LIPOXYGENASE-RXN","C",10).
atomMappingReactant("LIPOXYGENASE-RXN","C",8).
atomMappingReactant("LIPOXYGENASE-RXN","C",6).
atomMappingReactant("LIPOXYGENASE-RXN","C",5).
atomMappingReactant("LIPOXYGENASE-RXN","C",7).
atomMappingReactant("LIPOXYGENASE-RXN","C",9).
atomMappingReactant("LIPOXYGENASE-RXN","C",11).
atomMappingReactant("LIPOXYGENASE-RXN","C",14).
atomMappingReactant("LIPOXYGENASE-RXN","C",17).
atomMappingReactant("LIPOXYGENASE-RXN","C",19).
atomMappingReactant("LIPOXYGENASE-RXN","O",1).
atomMappingReactant("LIPOXYGENASE-RXN","O",1).
bondMappingReactant("LIPOXYGENASE-RXN","2","3","single").
bondMappingReactant("LIPOXYGENASE-RXN","3","4","single").
bondMappingReactant("LIPOXYGENASE-RXN","4","12","single").
bondMappingReactant("LIPOXYGENASE-RXN","12","15","single").
bondMappingReactant("LIPOXYGENASE-RXN","15","18","single").
bondMappingReactant("LIPOXYGENASE-RXN","18","16","double").
bondMappingReactant("LIPOXYGENASE-RXN","16","13","single").
bondMappingReactant("LIPOXYGENASE-RXN","13","10","single").
bondMappingReactant("LIPOXYGENASE-RXN","10","8","double").
bondMappingReactant("LIPOXYGENASE-RXN","8","6","single").
bondMappingReactant("LIPOXYGENASE-RXN","6","5","single").
bondMappingReactant("LIPOXYGENASE-RXN","5","7","single").
bondMappingReactant("LIPOXYGENASE-RXN","7","9","single").
bondMappingReactant("LIPOXYGENASE-RXN","9","11","single").
bondMappingReactant("LIPOXYGENASE-RXN","11","14","single").
bondMappingReactant("LIPOXYGENASE-RXN","14","17","single").
bondMappingReactant("LIPOXYGENASE-RXN","17","19","single").
bondMappingReactant("LIPOXYGENASE-RXN","19","1","single").
bondMappingReactant("LIPOXYGENASE-RXN","19","1","double").
atomMappingReactant("LIPOXYGENASE-RXN","O",20).
atomMappingReactant("LIPOXYGENASE-RXN","O",21).
bondMappingReactant("LIPOXYGENASE-RXN","20","21","double").
atomMappingProduct("LIPOXYGENASE-RXN","C",2).
atomMappingProduct("LIPOXYGENASE-RXN","C",3).
atomMappingProduct("LIPOXYGENASE-RXN","C",4).
atomMappingProduct("LIPOXYGENASE-RXN","C",12).
atomMappingProduct("LIPOXYGENASE-RXN","C",15).
atomMappingProduct("LIPOXYGENASE-RXN","C",18).
atomMappingProduct("LIPOXYGENASE-RXN","C",16).
atomMappingProduct("LIPOXYGENASE-RXN","C",13).
atomMappingProduct("LIPOXYGENASE-RXN","C",10).
atomMappingProduct("LIPOXYGENASE-RXN","C",8).
atomMappingProduct("LIPOXYGENASE-RXN","C",6).
atomMappingProduct("LIPOXYGENASE-RXN","C",5).
atomMappingProduct("LIPOXYGENASE-RXN","C",7).
atomMappingProduct("LIPOXYGENASE-RXN","C",9).
atomMappingProduct("LIPOXYGENASE-RXN","C",11).
atomMappingProduct("LIPOXYGENASE-RXN","C",14).
atomMappingProduct("LIPOXYGENASE-RXN","C",17).
atomMappingProduct("LIPOXYGENASE-RXN","C",19).
atomMappingProduct("LIPOXYGENASE-RXN","O",1).
atomMappingProduct("LIPOXYGENASE-RXN","O",1).
atomMappingProduct("LIPOXYGENASE-RXN","O",21).
atomMappingProduct("LIPOXYGENASE-RXN","O",20).
bondMappingProduct("LIPOXYGENASE-RXN","2","3","single").
bondMappingProduct("LIPOXYGENASE-RXN","3","4","single").
bondMappingProduct("LIPOXYGENASE-RXN","4","12","single").
bondMappingProduct("LIPOXYGENASE-RXN","12","15","single").
bondMappingProduct("LIPOXYGENASE-RXN","15","18","single").
bondMappingProduct("LIPOXYGENASE-RXN","18","16","single").
bondMappingProduct("LIPOXYGENASE-RXN","16","13","double").
bondMappingProduct("LIPOXYGENASE-RXN","13","10","single").
bondMappingProduct("LIPOXYGENASE-RXN","10","8","double").
bondMappingProduct("LIPOXYGENASE-RXN","8","6","single").
bondMappingProduct("LIPOXYGENASE-RXN","6","5","single").
bondMappingProduct("LIPOXYGENASE-RXN","5","7","single").
bondMappingProduct("LIPOXYGENASE-RXN","7","9","single").
bondMappingProduct("LIPOXYGENASE-RXN","9","11","single").
bondMappingProduct("LIPOXYGENASE-RXN","11","14","single").
bondMappingProduct("LIPOXYGENASE-RXN","14","17","single").
bondMappingProduct("LIPOXYGENASE-RXN","17","19","single").
bondMappingProduct("LIPOXYGENASE-RXN","19","1","double").
bondMappingProduct("LIPOXYGENASE-RXN","19","1","single").
bondMappingProduct("LIPOXYGENASE-RXN","18","21","single").
bondMappingProduct("LIPOXYGENASE-RXN","21","20","single").
